8601
43, 33, 51, 11, 12, 4, 6, 15, 5, 38, 40, 39, 36, 35, 34, 37, 48, 24, 25, 28, 27, 13, 52, 14, 47, 26, 46, 50, 20, 23, 31, 18, 3, 17, 21, 42, 7, 2, 30, 29, 16, 44, 1, 22, 49, 32, 45, 19, 41, 8, 9, 10
